Set parameter TokenServer to value "hpc-licenses.hpcc.usc.edu"
Set parameter TimeLimit to value 3600
Gurobi Optimizer version 9.5.1 build v9.5.1rc2 (linux64)
Thread count: 20 physical cores, 20 logical processors, using up to 20 threads
Optimize a model with 6007 rows, 4529 columns and 24534 nonzeros
Model fingerprint: 0x0b12e747
Variable types: 4506 continuous, 23 integer (23 binary)
Coefficient statistics:
  Matrix range     [1e+00, 1e+00]
  Objective range  [6e-05, 1e+00]
  Bounds range     [1e+00, 1e+00]
  RHS range        [1e+00, 7e+01]
Found heuristic solution: objective 219.5280849
Presolve removed 1520 rows and 1515 columns
Presolve time: 0.08s
Presolved: 4487 rows, 3014 columns, 21975 nonzeros
Variable types: 2994 continuous, 20 integer (20 binary)

Root relaxation: objective 2.285762e+02, 1946 iterations, 0.07 seconds (0.09 work units)

    Nodes    |    Current Node    |     Objective Bounds      |     Work
 Expl Unexpl |  Obj  Depth IntInf | Incumbent    BestBd   Gap | It/Node Time

     0     0  228.57621    0    2  219.52808  228.57621  4.12%     -    0s
H    0     0                     227.8139121  228.57621  0.33%     -    0s
     0     0  228.47428    0    4  227.81391  228.47428  0.29%     -    0s
     0     0  228.47428    0    2  227.81391  228.47428  0.29%     -    0s
     0     0  228.46747    0    4  227.81391  228.46747  0.29%     -    0s
     0     0  227.81391    0    5  227.81391  227.81391  0.00%     -    1s

Cutting planes:
  Gomory: 3
  MIR: 63

Explored 1 nodes (4718 simplex iterations) in 1.05 seconds (0.56 work units)
Thread count was 20 (of 20 available processors)

Solution count 2: 227.814 219.528 

Optimal solution found (tolerance 1.00e-04)
Best objective 2.278139120786e+02, best bound 2.278139120786e+02, gap 0.0000%



#########node  1
V1.9
#########node  2
0.0,1.0
#########node  3
0.9772727272727272,0.0227272727272727


Total Solving Time 1.3526427745819092
obj value 227.81391207855745
Policy Regret train (Sum) 10.475852471410601
Best Treatment Found train (%) 51.800000000000004
treatment classification acc train (%) 54.6
Policy Regret test (Sum) 171.07608036179815
Best Treatment Found test (%) 53.010000000000005
treatment classification acc test (%) 54.779999999999994
